opti conp 

cell
5.468000 5.468000 5.468000 90.000000 90.000000 90.000000

fractional
U core 0.000000 0.000000 0.000000
U core -0.000000 0.500000 0.500000
U core 0.500000 -0.000000 0.500000
U core 0.500000 0.500000 0.000000
O core 0.250000 0.250000 0.250000
O core 0.250000 0.250000 0.750000
O core 0.250000 0.750000 0.250000
O core 0.250000 0.750000 0.750000
O core 0.750000 0.250000 0.250000
O core 0.750000 0.250000 0.750000
O core 0.750000 0.750000 0.250000
O core 0.750000 0.750000 0.750000

species
U core 4.0
O core -2.0

buck4
O core O core 11272.6 0.1363 134.0 1.20 2.10 2.60 15.0

buck 
U core O core @A@  @rho@ 0.0 0.0 15.0

